p cnf 484 1
484 0
w 1 0.709164
w 2 1 1
w 2 -1 0
w 3 2 0.890891
w 3 -2 0.371682
w 4 3 0
w 4 -3 1
w 5 4 0
w 5 -4 1
w 6 5 0.960281
w 6 -5 0.407638
w 7 6 0.813467
w 7 -6 0.698657
w 8 7 0
w 8 -7 1
w 9 8 0
w 9 -8 1
w 10 9 1
w 10 -9 0
w 11 10 0.871105
w 11 -10 0.687841
w 12 11 0
w 12 -11 1
w 13 12 0.448415
w 13 -12 0.589052
w 14 13 1
w 14 -13 0
w 15 14 1
w 15 -14 0
w 16 15 0.581588
w 16 -15 0.44381
w 17 16 1
w 17 -16 0
w 18 17 0.812123
w 18 -17 0.830384
w 19 18 0.219761
w 19 -18 0.604228
w 20 19 0.918418
w 20 -19 0.990097
w 21 20 1
w 21 -20 0
w 22 21 1
w 22 -21 0
w 23 1 0
w 23 -1 1
w 24 23 2 0
w 24 23 -2 1
w 24 -23 2 0
w 24 -23 -2 1
w 25 24 3 0.0552384
w 25 24 -3 0.414329
w 25 -24 3 0.983712
w 25 -24 -3 0.745935
w 26 25 4 1
w 26 25 -4 0
w 26 -25 4 1
w 26 -25 -4 0
w 27 26 5 0
w 27 26 -5 1
w 27 -26 5 1
w 27 -26 -5 1
w 28 27 6 1
w 28 27 -6 0
w 28 -27 6 0
w 28 -27 -6 0
w 29 28 7 1
w 29 28 -7 0
w 29 -28 7 0
w 29 -28 -7 0
w 30 29 8 0
w 30 29 -8 0
w 30 -29 8 0
w 30 -29 -8 1
w 31 30 9 0
w 31 30 -9 0
w 31 -30 9 0
w 31 -30 -9 1
w 32 31 10 0.0758924
w 32 31 -10 0.59779
w 32 -31 10 0.147141
w 32 -31 -10 0.00615935
w 33 32 11 0
w 33 32 -11 0
w 33 -32 11 1
w 33 -32 -11 1
w 34 33 12 0.637162
w 34 33 -12 0.602208
w 34 -33 12 0.400523
w 34 -33 -12 0.652585
w 35 34 13 0
w 35 34 -13 1
w 35 -34 13 1
w 35 -34 -13 0
w 36 35 14 1
w 36 35 -14 0
w 36 -35 14 1
w 36 -35 -14 1
w 37 36 15 0
w 37 36 -15 1
w 37 -36 15 1
w 37 -36 -15 0
w 38 37 16 1
w 38 37 -16 0
w 38 -37 16 0
w 38 -37 -16 0
w 39 38 17 0
w 39 38 -17 1
w 39 -38 17 0
w 39 -38 -17 0
w 40 39 18 1
w 40 39 -18 1
w 40 -39 18 0
w 40 -39 -18 0
w 41 40 19 0
w 41 40 -19 1
w 41 -40 19 1
w 41 -40 -19 0
w 42 41 20 1
w 42 41 -20 1
w 42 -41 20 1
w 42 -41 -20 0
w 43 42 21 0.862936
w 43 42 -21 0.280543
w 43 -42 21 0.584195
w 43 -42 -21 0.124966
w 44 43 22 1
w 44 43 -22 0
w 44 -43 22 1
w 44 -43 -22 1
w 45 23 0.933142
w 45 -23 0.326176
w 46 45 24 1
w 46 45 -24 0
w 46 -45 24 0
w 46 -45 -24 0
w 47 46 25 1
w 47 46 -25 1
w 47 -46 25 0
w 47 -46 -25 1
w 48 47 26 0
w 48 47 -26 0
w 48 -47 26 1
w 48 -47 -26 1
w 49 48 27 0
w 49 48 -27 1
w 49 -48 27 1
w 49 -48 -27 0
w 50 49 28 1
w 50 49 -28 1
w 50 -49 28 0
w 50 -49 -28 1
w 51 50 29 1
w 51 50 -29 0
w 51 -50 29 0
w 51 -50 -29 0
w 52 51 30 0.434605
w 52 51 -30 0.560475
w 52 -51 30 0.355719
w 52 -51 -30 0.55394
w 53 52 31 0
w 53 52 -31 0
w 53 -52 31 1
w 53 -52 -31 1
w 54 53 32 0.539925
w 54 53 -32 0.66906
w 54 -53 32 0.828212
w 54 -53 -32 0.454078
w 55 54 33 1
w 55 54 -33 1
w 55 -54 33 1
w 55 -54 -33 0
w 56 55 34 1
w 56 55 -34 0
w 56 -55 34 1
w 56 -55 -34 1
w 57 56 35 0
w 57 56 -35 0
w 57 -56 35 1
w 57 -56 -35 0
w 58 57 36 0.199223
w 58 57 -36 0.970543
w 58 -57 36 0.424962
w 58 -57 -36 0.554942
w 59 58 37 1
w 59 58 -37 0
w 59 -58 37 1
w 59 -58 -37 0
w 60 59 38 0.467267
w 60 59 -38 0.545412
w 60 -59 38 0.421915
w 60 -59 -38 0.295479
w 61 60 39 0.804345
w 61 60 -39 0.157771
w 61 -60 39 0.558063
w 61 -60 -39 0.581881
w 62 61 40 0.0840669
w 62 61 -40 0.0350672
w 62 -61 40 0.876366
w 62 -61 -40 0.702468
w 63 62 41 0
w 63 62 -41 0
w 63 -62 41 0
w 63 -62 -41 1
w 64 63 42 0
w 64 63 -42 1
w 64 -63 42 0
w 64 -63 -42 1
w 65 64 43 1
w 65 64 -43 0
w 65 -64 43 1
w 65 -64 -43 0
w 66 65 44 0.340931
w 66 65 -44 0.0196508
w 66 -65 44 0.539068
w 66 -65 -44 0.762846
w 67 45 0
w 67 -45 1
w 68 67 46 0
w 68 67 -46 1
w 68 -67 46 0
w 68 -67 -46 1
w 69 68 47 1
w 69 68 -47 0
w 69 -68 47 1
w 69 -68 -47 1
w 70 69 48 1
w 70 69 -48 1
w 70 -69 48 1
w 70 -69 -48 0
w 71 70 49 0.511232
w 71 70 -49 0.554033
w 71 -70 49 0.0828025
w 71 -70 -49 0.0672607
w 72 71 50 0
w 72 71 -50 1
w 72 -71 50 1
w 72 -71 -50 1
w 73 72 51 0.0331851
w 73 72 -51 0.603695
w 73 -72 51 0.759113
w 73 -72 -51 0.348315
w 74 73 52 1
w 74 73 -52 1
w 74 -73 52 0
w 74 -73 -52 1
w 75 74 53 0
w 75 74 -53 0
w 75 -74 53 0
w 75 -74 -53 1
w 76 75 54 0
w 76 75 -54 1
w 76 -75 54 0
w 76 -75 -54 1
w 77 76 55 0
w 77 76 -55 0
w 77 -76 55 1
w 77 -76 -55 0
w 78 77 56 0
w 78 77 -56 1
w 78 -77 56 0
w 78 -77 -56 1
w 79 78 57 0
w 79 78 -57 1
w 79 -78 57 0
w 79 -78 -57 0
w 80 79 58 0
w 80 79 -58 1
w 80 -79 58 1
w 80 -79 -58 0
w 81 80 59 1
w 81 80 -59 0
w 81 -80 59 1
w 81 -80 -59 1
w 82 81 60 0
w 82 81 -60 1
w 82 -81 60 1
w 82 -81 -60 1
w 83 82 61 1
w 83 82 -61 0
w 83 -82 61 1
w 83 -82 -61 0
w 84 83 62 1
w 84 83 -62 1
w 84 -83 62 0
w 84 -83 -62 0
w 85 84 63 1
w 85 84 -63 0
w 85 -84 63 1
w 85 -84 -63 1
w 86 85 64 0
w 86 85 -64 0
w 86 -85 64 0
w 86 -85 -64 1
w 87 86 65 0
w 87 86 -65 1
w 87 -86 65 0
w 87 -86 -65 0
w 88 87 66 1
w 88 87 -66 1
w 88 -87 66 1
w 88 -87 -66 0
w 89 67 0.237137
w 89 -67 0.265891
w 90 89 68 1
w 90 89 -68 0
w 90 -89 68 1
w 90 -89 -68 0
w 91 90 69 0.307922
w 91 90 -69 0.0754334
w 91 -90 69 0.946703
w 91 -90 -69 0.361866
w 92 91 70 1
w 92 91 -70 1
w 92 -91 70 1
w 92 -91 -70 0
w 93 92 71 1
w 93 92 -71 1
w 93 -92 71 0
w 93 -92 -71 0
w 94 93 72 0
w 94 93 -72 0
w 94 -93 72 1
w 94 -93 -72 0
w 95 94 73 0.938583
w 95 94 -73 0.477287
w 95 -94 73 0.157718
w 95 -94 -73 0.204474
w 96 95 74 1
w 96 95 -74 0
w 96 -95 74 1
w 96 -95 -74 1
w 97 96 75 0.387349
w 97 96 -75 0.694657
w 97 -96 75 0.882881
w 97 -96 -75 0.749216
w 98 97 76 0
w 98 97 -76 0
w 98 -97 76 0
w 98 -97 -76 1
w 99 98 77 1
w 99 98 -77 0
w 99 -98 77 0
w 99 -98 -77 1
w 100 99 78 0
w 100 99 -78 0
w 100 -99 78 0
w 100 -99 -78 1
w 101 100 79 0.928305
w 101 100 -79 0.591165
w 101 -100 79 0.326181
w 101 -100 -79 0.0860232
w 102 101 80 0.856302
w 102 101 -80 0.0122154
w 102 -101 80 0.751873
w 102 -101 -80 0.93573
w 103 102 81 0
w 103 102 -81 0
w 103 -102 81 0
w 103 -102 -81 1
w 104 103 82 0
w 104 103 -82 1
w 104 -103 82 1
w 104 -103 -82 0
w 105 104 83 0.911533
w 105 104 -83 0.559946
w 105 -104 83 0.139663
w 105 -104 -83 0.908757
w 106 105 84 0
w 106 105 -84 1
w 106 -105 84 1
w 106 -105 -84 0
w 107 106 85 1
w 107 106 -85 0
w 107 -106 85 0
w 107 -106 -85 1
w 108 107 86 0
w 108 107 -86 0
w 108 -107 86 1
w 108 -107 -86 1
w 109 108 87 0
w 109 108 -87 1
w 109 -108 87 0
w 109 -108 -87 0
w 110 109 88 0.786784
w 110 109 -88 0.404958
w 110 -109 88 0.828798
w 110 -109 -88 0.708061
w 111 89 0
w 111 -89 1
w 112 111 90 1
w 112 111 -90 0
w 112 -111 90 1
w 112 -111 -90 1
w 113 112 91 0
w 113 112 -91 1
w 113 -112 91 0
w 113 -112 -91 0
w 114 113 92 1
w 114 113 -92 1
w 114 -113 92 0
w 114 -113 -92 1
w 115 114 93 1
w 115 114 -93 1
w 115 -114 93 1
w 115 -114 -93 0
w 116 115 94 0.333871
w 116 115 -94 0.449368
w 116 -115 94 0.631572
w 116 -115 -94 0.738829
w 117 116 95 0
w 117 116 -95 0
w 117 -116 95 1
w 117 -116 -95 1
w 118 117 96 1
w 118 117 -96 0
w 118 -117 96 1
w 118 -117 -96 0
w 119 118 97 1
w 119 118 -97 1
w 119 -118 97 1
w 119 -118 -97 0
w 120 119 98 1
w 120 119 -98 0
w 120 -119 98 1
w 120 -119 -98 1
w 121 120 99 0
w 121 120 -99 0
w 121 -120 99 1
w 121 -120 -99 0
w 122 121 100 0
w 122 121 -100 0
w 122 -121 100 1
w 122 -121 -100 1
w 123 122 101 1
w 123 122 -101 1
w 123 -122 101 0
w 123 -122 -101 1
w 124 123 102 0
w 124 123 -102 0
w 124 -123 102 0
w 124 -123 -102 1
w 125 124 103 0.208445
w 125 124 -103 0.257586
w 125 -124 103 0.88942
w 125 -124 -103 0.310712
w 126 125 104 0.373761
w 126 125 -104 0.956786
w 126 -125 104 0.730607
w 126 -125 -104 0.535674
w 127 126 105 0
w 127 126 -105 1
w 127 -126 105 0
w 127 -126 -105 0
w 128 127 106 0.29109
w 128 127 -106 0.380872
w 128 -127 106 0.136951
w 128 -127 -106 0.628561
w 129 128 107 0
w 129 128 -107 1
w 129 -128 107 0
w 129 -128 -107 0
w 130 129 108 0.364758
w 130 129 -108 0.523073
w 130 -129 108 0.0913324
w 130 -129 -108 0.37941
w 131 130 109 0
w 131 130 -109 1
w 131 -130 109 1
w 131 -130 -109 1
w 132 131 110 0
w 132 131 -110 1
w 132 -131 110 1
w 132 -131 -110 1
w 133 111 0.454814
w 133 -111 0.411172
w 134 133 112 1
w 134 133 -112 0
w 134 -133 112 0
w 134 -133 -112 0
w 135 134 113 1
w 135 134 -113 1
w 135 -134 113 0
w 135 -134 -113 0
w 136 135 114 1
w 136 135 -114 0
w 136 -135 114 0
w 136 -135 -114 1
w 137 136 115 1
w 137 136 -115 1
w 137 -136 115 1
w 137 -136 -115 0
w 138 137 116 0
w 138 137 -116 1
w 138 -137 116 1
w 138 -137 -116 1
w 139 138 117 0
w 139 138 -117 0
w 139 -138 117 1
w 139 -138 -117 1
w 140 139 118 0.29906
w 140 139 -118 0.753194
w 140 -139 118 0.731859
w 140 -139 -118 0.16544
w 141 140 119 1
w 141 140 -119 0
w 141 -140 119 1
w 141 -140 -119 1
w 142 141 120 1
w 142 141 -120 1
w 142 -141 120 0
w 142 -141 -120 1
w 143 142 121 0
w 143 142 -121 1
w 143 -142 121 1
w 143 -142 -121 0
w 144 143 122 1
w 144 143 -122 0
w 144 -143 122 1
w 144 -143 -122 0
w 145 144 123 1
w 145 144 -123 1
w 145 -144 123 0
w 145 -144 -123 1
w 146 145 124 0.592049
w 146 145 -124 0.620146
w 146 -145 124 0.687479
w 146 -145 -124 0.757489
w 147 146 125 0.0263919
w 147 146 -125 0.798524
w 147 -146 125 0.185534
w 147 -146 -125 0.94078
w 148 147 126 0
w 148 147 -126 0
w 148 -147 126 0
w 148 -147 -126 1
w 149 148 127 0
w 149 148 -127 0
w 149 -148 127 0
w 149 -148 -127 1
w 150 149 128 0
w 150 149 -128 0
w 150 -149 128 0
w 150 -149 -128 1
w 151 150 129 0.78673
w 151 150 -129 0.606997
w 151 -150 129 0.0796962
w 151 -150 -129 0.0797188
w 152 151 130 0
w 152 151 -130 0
w 152 -151 130 1
w 152 -151 -130 0
w 153 152 131 0.749187
w 153 152 -131 0.227781
w 153 -152 131 0.10164
w 153 -152 -131 0.689967
w 154 153 132 1
w 154 153 -132 0
w 154 -153 132 0
w 154 -153 -132 0
w 155 133 0.159368
w 155 -133 0.261017
w 156 155 134 1
w 156 155 -134 0
w 156 -155 134 1
w 156 -155 -134 1
w 157 156 135 1
w 157 156 -135 1
w 157 -156 135 0
w 157 -156 -135 1
w 158 157 136 0
w 158 157 -136 1
w 158 -157 136 1
w 158 -157 -136 0
w 159 158 137 1
w 159 158 -137 0
w 159 -158 137 0
w 159 -158 -137 0
w 160 159 138 1
w 160 159 -138 0
w 160 -159 138 0
w 160 -159 -138 0
w 161 160 139 1
w 161 160 -139 0
w 161 -160 139 1
w 161 -160 -139 0
w 162 161 140 0
w 162 161 -140 1
w 162 -161 140 0
w 162 -161 -140 0
w 163 162 141 0
w 163 162 -141 1
w 163 -162 141 0
w 163 -162 -141 1
w 164 163 142 0.44485
w 164 163 -142 0.721436
w 164 -163 142 0.251906
w 164 -163 -142 0.889032
w 165 164 143 0
w 165 164 -143 1
w 165 -164 143 1
w 165 -164 -143 0
w 166 165 144 1
w 166 165 -144 1
w 166 -165 144 1
w 166 -165 -144 0
w 167 166 145 0
w 167 166 -145 1
w 167 -166 145 0
w 167 -166 -145 1
w 168 167 146 0.410147
w 168 167 -146 0.848618
w 168 -167 146 0.721958
w 168 -167 -146 0.575348
w 169 168 147 1
w 169 168 -147 0
w 169 -168 147 1
w 169 -168 -147 1
w 170 169 148 0
w 170 169 -148 1
w 170 -169 148 1
w 170 -169 -148 1
w 171 170 149 0
w 171 170 -149 1
w 171 -170 149 0
w 171 -170 -149 0
w 172 171 150 1
w 172 171 -150 1
w 172 -171 150 0
w 172 -171 -150 0
w 173 172 151 0
w 173 172 -151 0
w 173 -172 151 1
w 173 -172 -151 0
w 174 173 152 1
w 174 173 -152 1
w 174 -173 152 1
w 174 -173 -152 0
w 175 174 153 1
w 175 174 -153 1
w 175 -174 153 1
w 175 -174 -153 0
w 176 175 154 0
w 176 175 -154 1
w 176 -175 154 1
w 176 -175 -154 1
w 177 155 0.500576
w 177 -155 0.130756
w 178 177 156 1
w 178 177 -156 0
w 178 -177 156 0
w 178 -177 -156 0
w 179 178 157 1
w 179 178 -157 0
w 179 -178 157 1
w 179 -178 -157 1
w 180 179 158 0
w 180 179 -158 1
w 180 -179 158 0
w 180 -179 -158 1
w 181 180 159 1
w 181 180 -159 1
w 181 -180 159 0
w 181 -180 -159 1
w 182 181 160 0.689291
w 182 181 -160 0.840588
w 182 -181 160 0.532775
w 182 -181 -160 0.670143
w 183 182 161 1
w 183 182 -161 1
w 183 -182 161 0
w 183 -182 -161 0
w 184 183 162 0.341482
w 184 183 -162 0.283825
w 184 -183 162 0.116332
w 184 -183 -162 0.44176
w 185 184 163 1
w 185 184 -163 1
w 185 -184 163 0
w 185 -184 -163 0
w 186 185 164 1
w 186 185 -164 0
w 186 -185 164 1
w 186 -185 -164 1
w 187 186 165 0.772392
w 187 186 -165 0.206884
w 187 -186 165 0.252817
w 187 -186 -165 0.827804
w 188 187 166 1
w 188 187 -166 0
w 188 -187 166 1
w 188 -187 -166 1
w 189 188 167 0
w 189 188 -167 0
w 189 -188 167 1
w 189 -188 -167 0
w 190 189 168 1
w 190 189 -168 1
w 190 -189 168 0
w 190 -189 -168 1
w 191 190 169 0.906262
w 191 190 -169 0.934927
w 191 -190 169 0.296564
w 191 -190 -169 0.387277
w 192 191 170 1
w 192 191 -170 0
w 192 -191 170 1
w 192 -191 -170 1
w 193 192 171 0
w 193 192 -171 0
w 193 -192 171 0
w 193 -192 -171 1
w 194 193 172 1
w 194 193 -172 0
w 194 -193 172 0
w 194 -193 -172 0
w 195 194 173 1
w 195 194 -173 0
w 195 -194 173 0
w 195 -194 -173 1
w 196 195 174 0.980078
w 196 195 -174 0.294137
w 196 -195 174 0.713349
w 196 -195 -174 0.492684
w 197 196 175 0
w 197 196 -175 1
w 197 -196 175 1
w 197 -196 -175 0
w 198 197 176 0.736215
w 198 197 -176 0.354822
w 198 -197 176 0.976052
w 198 -197 -176 0.0545975
w 199 177 1
w 199 -177 0
w 200 199 178 0
w 200 199 -178 1
w 200 -199 178 1
w 200 -199 -178 1
w 201 200 179 1
w 201 200 -179 0
w 201 -200 179 0
w 201 -200 -179 0
w 202 201 180 0
w 202 201 -180 1
w 202 -201 180 1
w 202 -201 -180 0
w 203 202 181 0
w 203 202 -181 0
w 203 -202 181 1
w 203 -202 -181 0
w 204 203 182 0
w 204 203 -182 1
w 204 -203 182 0
w 204 -203 -182 0
w 205 204 183 0
w 205 204 -183 0
w 205 -204 183 0
w 205 -204 -183 1
w 206 205 184 1
w 206 205 -184 0
w 206 -205 184 0
w 206 -205 -184 0
w 207 206 185 0
w 207 206 -185 0
w 207 -206 185 1
w 207 -206 -185 0
w 208 207 186 0
w 208 207 -186 0
w 208 -207 186 0
w 208 -207 -186 1
w 209 208 187 0
w 209 208 -187 1
w 209 -208 187 1
w 209 -208 -187 1
w 210 209 188 0.83543
w 210 209 -188 0.111974
w 210 -209 188 0.269688
w 210 -209 -188 0.102025
w 211 210 189 0
w 211 210 -189 1
w 211 -210 189 0
w 211 -210 -189 0
w 212 211 190 0.70201
w 212 211 -190 0.146185
w 212 -211 190 0.683396
w 212 -211 -190 0.665516
w 213 212 191 1
w 213 212 -191 0
w 213 -212 191 0
w 213 -212 -191 0
w 214 213 192 0
w 214 213 -192 0
w 214 -213 192 0
w 214 -213 -192 1
w 215 214 193 0
w 215 214 -193 1
w 215 -214 193 0
w 215 -214 -193 1
w 216 215 194 1
w 216 215 -194 1
w 216 -215 194 0
w 216 -215 -194 1
w 217 216 195 0.63811
w 217 216 -195 0.00522465
w 217 -216 195 0.00269987
w 217 -216 -195 0.876396
w 218 217 196 0.70471
w 218 217 -196 0.0225812
w 218 -217 196 0.648705
w 218 -217 -196 0.370226
w 219 218 197 1
w 219 218 -197 0
w 219 -218 197 1
w 219 -218 -197 0
w 220 219 198 0
w 220 219 -198 0
w 220 -219 198 1
w 220 -219 -198 0
w 221 199 0
w 221 -199 1
w 222 221 200 1
w 222 221 -200 1
w 222 -221 200 0
w 222 -221 -200 0
w 223 222 201 0.902581
w 223 222 -201 0.712545
w 223 -222 201 0.517664
w 223 -222 -201 0.835346
w 224 223 202 0
w 224 223 -202 1
w 224 -223 202 0
w 224 -223 -202 1
w 225 224 203 1
w 225 224 -203 1
w 225 -224 203 0
w 225 -224 -203 1
w 226 225 204 1
w 226 225 -204 0
w 226 -225 204 0
w 226 -225 -204 1
w 227 226 205 0.249464
w 227 226 -205 0.936981
w 227 -226 205 0.198168
w 227 -226 -205 0.40898
w 228 227 206 0
w 228 227 -206 0
w 228 -227 206 1
w 228 -227 -206 0
w 229 228 207 0
w 229 228 -207 0
w 229 -228 207 1
w 229 -228 -207 0
w 230 229 208 1
w 230 229 -208 0
w 230 -229 208 0
w 230 -229 -208 0
w 231 230 209 1
w 231 230 -209 1
w 231 -230 209 0
w 231 -230 -209 0
w 232 231 210 1
w 232 231 -210 1
w 232 -231 210 0
w 232 -231 -210 1
w 233 232 211 1
w 233 232 -211 1
w 233 -232 211 0
w 233 -232 -211 0
w 234 233 212 0
w 234 233 -212 0
w 234 -233 212 0
w 234 -233 -212 1
w 235 234 213 0
w 235 234 -213 1
w 235 -234 213 0
w 235 -234 -213 0
w 236 235 214 0.339545
w 236 235 -214 0.708919
w 236 -235 214 0.995999
w 236 -235 -214 0.710814
w 237 236 215 0.6227
w 237 236 -215 0.331714
w 237 -236 215 0.239644
w 237 -236 -215 0.162383
w 238 237 216 1
w 238 237 -216 1
w 238 -237 216 1
w 238 -237 -216 0
w 239 238 217 1
w 239 238 -217 1
w 239 -238 217 0
w 239 -238 -217 1
w 240 239 218 0
w 240 239 -218 0
w 240 -239 218 0
w 240 -239 -218 1
w 241 240 219 1
w 241 240 -219 1
w 241 -240 219 0
w 241 -240 -219 1
w 242 241 220 1
w 242 241 -220 0
w 242 -241 220 1
w 242 -241 -220 1
w 243 221 1
w 243 -221 0
w 244 243 222 0
w 244 243 -222 0
w 244 -243 222 0
w 244 -243 -222 1
w 245 244 223 0.804376
w 245 244 -223 0.112291
w 245 -244 223 0.37257
w 245 -244 -223 0.00866115
w 246 245 224 0.649014
w 246 245 -224 0.0356474
w 246 -245 224 0.0857423
w 246 -245 -224 0.203483
w 247 246 225 1
w 247 246 -225 0
w 247 -246 225 0
w 247 -246 -225 0
w 248 247 226 1
w 248 247 -226 0
w 248 -247 226 0
w 248 -247 -226 1
w 249 248 227 0
w 249 248 -227 0
w 249 -248 227 0
w 249 -248 -227 1
w 250 249 228 0
w 250 249 -228 1
w 250 -249 228 1
w 250 -249 -228 1
w 251 250 229 1
w 251 250 -229 1
w 251 -250 229 1
w 251 -250 -229 0
w 252 251 230 1
w 252 251 -230 0
w 252 -251 230 1
w 252 -251 -230 0
w 253 252 231 0
w 253 252 -231 0
w 253 -252 231 1
w 253 -252 -231 0
w 254 253 232 1
w 254 253 -232 0
w 254 -253 232 0
w 254 -253 -232 0
w 255 254 233 0
w 255 254 -233 0
w 255 -254 233 0
w 255 -254 -233 1
w 256 255 234 1
w 256 255 -234 1
w 256 -255 234 0
w 256 -255 -234 1
w 257 256 235 0
w 257 256 -235 0
w 257 -256 235 0
w 257 -256 -235 1
w 258 257 236 0.219387
w 258 257 -236 0.214076
w 258 -257 236 0.724941
w 258 -257 -236 0.733813
w 259 258 237 0
w 259 258 -237 1
w 259 -258 237 1
w 259 -258 -237 0
w 260 259 238 0.394258
w 260 259 -238 0.777266
w 260 -259 238 0.189268
w 260 -259 -238 0.545636
w 261 260 239 0.19995
w 261 260 -239 0.336833
w 261 -260 239 0.408999
w 261 -260 -239 0.491931
w 262 261 240 0
w 262 261 -240 0
w 262 -261 240 0
w 262 -261 -240 1
w 263 262 241 0
w 263 262 -241 1
w 263 -262 241 0
w 263 -262 -241 0
w 264 263 242 1
w 264 263 -242 0
w 264 -263 242 1
w 264 -263 -242 1
w 265 243 1
w 265 -243 0
w 266 265 244 1
w 266 265 -244 1
w 266 -265 244 0
w 266 -265 -244 0
w 267 266 245 0.482743
w 267 266 -245 0.714631
w 267 -266 245 0.714333
w 267 -266 -245 0.682693
w 268 267 246 0
w 268 267 -246 0
w 268 -267 246 1
w 268 -267 -246 0
w 269 268 247 1
w 269 268 -247 0
w 269 -268 247 1
w 269 -268 -247 1
w 270 269 248 1
w 270 269 -248 1
w 270 -269 248 1
w 270 -269 -248 0
w 271 270 249 0.00962113
w 271 270 -249 0.489765
w 271 -270 249 0.577237
w 271 -270 -249 0.840277
w 272 271 250 0
w 272 271 -250 1
w 272 -271 250 0
w 272 -271 -250 0
w 273 272 251 0.800297
w 273 272 -251 0.235598
w 273 -272 251 0.603494
w 273 -272 -251 0.48299
w 274 273 252 1
w 274 273 -252 0
w 274 -273 252 1
w 274 -273 -252 0
w 275 274 253 1
w 275 274 -253 1
w 275 -274 253 0
w 275 -274 -253 0
w 276 275 254 1
w 276 275 -254 1
w 276 -275 254 0
w 276 -275 -254 0
w 277 276 255 0
w 277 276 -255 0
w 277 -276 255 0
w 277 -276 -255 1
w 278 277 256 0
w 278 277 -256 0
w 278 -277 256 1
w 278 -277 -256 0
w 279 278 257 0.313263
w 279 278 -257 0.777371
w 279 -278 257 0.133694
w 279 -278 -257 0.916757
w 280 279 258 0
w 280 279 -258 1
w 280 -279 258 1
w 280 -279 -258 1
w 281 280 259 1
w 281 280 -259 0
w 281 -280 259 0
w 281 -280 -259 0
w 282 281 260 0
w 282 281 -260 1
w 282 -281 260 0
w 282 -281 -260 0
w 283 282 261 0.772477
w 283 282 -261 0.861917
w 283 -282 261 0.468858
w 283 -282 -261 0.797631
w 284 283 262 1
w 284 283 -262 0
w 284 -283 262 0
w 284 -283 -262 0
w 285 284 263 0
w 285 284 -263 0
w 285 -284 263 0
w 285 -284 -263 1
w 286 285 264 1
w 286 285 -264 0
w 286 -285 264 0
w 286 -285 -264 0
w 287 265 0
w 287 -265 1
w 288 287 266 0
w 288 287 -266 1
w 288 -287 266 0
w 288 -287 -266 0
w 289 288 267 1
w 289 288 -267 1
w 289 -288 267 0
w 289 -288 -267 1
w 290 289 268 1
w 290 289 -268 0
w 290 -289 268 1
w 290 -289 -268 1
w 291 290 269 0.979869
w 291 290 -269 0.362297
w 291 -290 269 0.768026
w 291 -290 -269 0.186418
w 292 291 270 1
w 292 291 -270 1
w 292 -291 270 0
w 292 -291 -270 1
w 293 292 271 0
w 293 292 -271 1
w 293 -292 271 1
w 293 -292 -271 0
w 294 293 272 0
w 294 293 -272 1
w 294 -293 272 0
w 294 -293 -272 1
w 295 294 273 1
w 295 294 -273 0
w 295 -294 273 1
w 295 -294 -273 1
w 296 295 274 1
w 296 295 -274 0
w 296 -295 274 1
w 296 -295 -274 0
w 297 296 275 1
w 297 296 -275 0
w 297 -296 275 0
w 297 -296 -275 1
w 298 297 276 0
w 298 297 -276 0
w 298 -297 276 0
w 298 -297 -276 1
w 299 298 277 1
w 299 298 -277 0
w 299 -298 277 0
w 299 -298 -277 1
w 300 299 278 1
w 300 299 -278 0
w 300 -299 278 1
w 300 -299 -278 0
w 301 300 279 0
w 301 300 -279 0
w 301 -300 279 0
w 301 -300 -279 1
w 302 301 280 1
w 302 301 -280 1
w 302 -301 280 0
w 302 -301 -280 1
w 303 302 281 0
w 303 302 -281 1
w 303 -302 281 1
w 303 -302 -281 1
w 304 303 282 1
w 304 303 -282 1
w 304 -303 282 1
w 304 -303 -282 0
w 305 304 283 0
w 305 304 -283 0
w 305 -304 283 1
w 305 -304 -283 0
w 306 305 284 0
w 306 305 -284 1
w 306 -305 284 1
w 306 -305 -284 1
w 307 306 285 0
w 307 306 -285 1
w 307 -306 285 1
w 307 -306 -285 1
w 308 307 286 0.0324263
w 308 307 -286 0.362775
w 308 -307 286 0.349494
w 308 -307 -286 0.728943
w 309 287 0
w 309 -287 1
w 310 309 288 0
w 310 309 -288 1
w 310 -309 288 0
w 310 -309 -288 1
w 311 310 289 1
w 311 310 -289 1
w 311 -310 289 0
w 311 -310 -289 1
w 312 311 290 1
w 312 311 -290 1
w 312 -311 290 0
w 312 -311 -290 1
w 313 312 291 0.0631725
w 313 312 -291 0.149452
w 313 -312 291 0.566788
w 313 -312 -291 0.506024
w 314 313 292 0.861782
w 314 313 -292 0.291447
w 314 -313 292 0.715572
w 314 -313 -292 0.894209
w 315 314 293 1
w 315 314 -293 0
w 315 -314 293 1
w 315 -314 -293 1
w 316 315 294 0.156853
w 316 315 -294 0.683966
w 316 -315 294 0.990234
w 316 -315 -294 0.912569
w 317 316 295 1
w 317 316 -295 0
w 317 -316 295 1
w 317 -316 -295 0
w 318 317 296 0.0716185
w 318 317 -296 0.472953
w 318 -317 296 0.593126
w 318 -317 -296 0.706741
w 319 318 297 0.528474
w 319 318 -297 0.769914
w 319 -318 297 0.0656267
w 319 -318 -297 0.0952621
w 320 319 298 0
w 320 319 -298 1
w 320 -319 298 0
w 320 -319 -298 0
w 321 320 299 0.221607
w 321 320 -299 0.724065
w 321 -320 299 0.474404
w 321 -320 -299 0.0306072
w 322 321 300 0
w 322 321 -300 0
w 322 -321 300 1
w 322 -321 -300 0
w 323 322 301 1
w 323 322 -301 1
w 323 -322 301 0
w 323 -322 -301 1
w 324 323 302 0.685045
w 324 323 -302 0.810861
w 324 -323 302 0.394699
w 324 -323 -302 0.391786
w 325 324 303 1
w 325 324 -303 1
w 325 -324 303 1
w 325 -324 -303 0
w 326 325 304 1
w 326 325 -304 0
w 326 -325 304 1
w 326 -325 -304 1
w 327 326 305 0.226629
w 327 326 -305 0.119155
w 327 -326 305 0.301136
w 327 -326 -305 0.257236
w 328 327 306 0
w 328 327 -306 1
w 328 -327 306 0
w 328 -327 -306 0
w 329 328 307 0
w 329 328 -307 0
w 329 -328 307 1
w 329 -328 -307 1
w 330 329 308 1
w 330 329 -308 1
w 330 -329 308 0
w 330 -329 -308 1
w 331 309 1
w 331 -309 0
w 332 331 310 1
w 332 331 -310 0
w 332 -331 310 1
w 332 -331 -310 0
w 333 332 311 1
w 333 332 -311 0
w 333 -332 311 1
w 333 -332 -311 1
w 334 333 312 0.667738
w 334 333 -312 0.579662
w 334 -333 312 0.362253
w 334 -333 -312 0.218999
w 335 334 313 1
w 335 334 -313 0
w 335 -334 313 1
w 335 -334 -313 1
w 336 335 314 0.211053
w 336 335 -314 0.167226
w 336 -335 314 0.223678
w 336 -335 -314 0.310705
w 337 336 315 0
w 337 336 -315 1
w 337 -336 315 0
w 337 -336 -315 0
w 338 337 316 0
w 338 337 -316 1
w 338 -337 316 0
w 338 -337 -316 0
w 339 338 317 1
w 339 338 -317 1
w 339 -338 317 0
w 339 -338 -317 0
w 340 339 318 1
w 340 339 -318 1
w 340 -339 318 1
w 340 -339 -318 0
w 341 340 319 0
w 341 340 -319 1
w 341 -340 319 0
w 341 -340 -319 1
w 342 341 320 1
w 342 341 -320 1
w 342 -341 320 0
w 342 -341 -320 1
w 343 342 321 0
w 343 342 -321 1
w 343 -342 321 1
w 343 -342 -321 0
w 344 343 322 1
w 344 343 -322 0
w 344 -343 322 1
w 344 -343 -322 1
w 345 344 323 1
w 345 344 -323 0
w 345 -344 323 0
w 345 -344 -323 0
w 346 345 324 1
w 346 345 -324 1
w 346 -345 324 1
w 346 -345 -324 0
w 347 346 325 0
w 347 346 -325 0
w 347 -346 325 0
w 347 -346 -325 1
w 348 347 326 0.621045
w 348 347 -326 0.482403
w 348 -347 326 0.263932
w 348 -347 -326 0.736139
w 349 348 327 0
w 349 348 -327 1
w 349 -348 327 0
w 349 -348 -327 0
w 350 349 328 1
w 350 349 -328 0
w 350 -349 328 0
w 350 -349 -328 1
w 351 350 329 0
w 351 350 -329 1
w 351 -350 329 1
w 351 -350 -329 1
w 352 351 330 0
w 352 351 -330 0
w 352 -351 330 1
w 352 -351 -330 0
w 353 331 0
w 353 -331 1
w 354 353 332 0
w 354 353 -332 1
w 354 -353 332 1
w 354 -353 -332 0
w 355 354 333 0
w 355 354 -333 1
w 355 -354 333 1
w 355 -354 -333 0
w 356 355 334 0
w 356 355 -334 0
w 356 -355 334 1
w 356 -355 -334 1
w 357 356 335 0.143027
w 357 356 -335 0.675336
w 357 -356 335 0.48911
w 357 -356 -335 0.647912
w 358 357 336 0
w 358 357 -336 1
w 358 -357 336 1
w 358 -357 -336 1
w 359 358 337 0.564072
w 359 358 -337 0.297679
w 359 -358 337 0.510869
w 359 -358 -337 0.909527
w 360 359 338 1
w 360 359 -338 0
w 360 -359 338 0
w 360 -359 -338 0
w 361 360 339 0.549654
w 361 360 -339 0.117759
w 361 -360 339 0.374087
w 361 -360 -339 0.389019
w 362 361 340 0
w 362 361 -340 1
w 362 -361 340 0
w 362 -361 -340 1
w 363 362 341 0
w 363 362 -341 1
w 363 -362 341 0
w 363 -362 -341 1
w 364 363 342 1
w 364 363 -342 1
w 364 -363 342 1
w 364 -363 -342 0
w 365 364 343 0.989474
w 365 364 -343 0.0850928
w 365 -364 343 0.237906
w 365 -364 -343 0.500343
w 366 365 344 0.702395
w 366 365 -344 0.520676
w 366 -365 344 0.0662564
w 366 -365 -344 0.968265
w 367 366 345 0.921049
w 367 366 -345 0.517919
w 367 -366 345 0.0755145
w 367 -366 -345 0.295136
w 368 367 346 0.340995
w 368 367 -346 0.841895
w 368 -367 346 0.774579
w 368 -367 -346 0.816766
w 369 368 347 1
w 369 368 -347 1
w 369 -368 347 0
w 369 -368 -347 0
w 370 369 348 0.0118305
w 370 369 -348 0.844022
w 370 -369 348 0.763199
w 370 -369 -348 0.225589
w 371 370 349 0
w 371 370 -349 1
w 371 -370 349 0
w 371 -370 -349 1
w 372 371 350 0
w 372 371 -350 0
w 372 -371 350 0
w 372 -371 -350 1
w 373 372 351 0
w 373 372 -351 1
w 373 -372 351 1
w 373 -372 -351 0
w 374 373 352 1
w 374 373 -352 0
w 374 -373 352 0
w 374 -373 -352 0
w 375 353 1
w 375 -353 0
w 376 375 354 0
w 376 375 -354 1
w 376 -375 354 1
w 376 -375 -354 0
w 377 376 355 0
w 377 376 -355 0
w 377 -376 355 1
w 377 -376 -355 0
w 378 377 356 0
w 378 377 -356 1
w 378 -377 356 1
w 378 -377 -356 0
w 379 378 357 1
w 379 378 -357 0
w 379 -378 357 1
w 379 -378 -357 1
w 380 379 358 0
w 380 379 -358 1
w 380 -379 358 1
w 380 -379 -358 1
w 381 380 359 1
w 381 380 -359 1
w 381 -380 359 1
w 381 -380 -359 0
w 382 381 360 0
w 382 381 -360 0
w 382 -381 360 1
w 382 -381 -360 0
w 383 382 361 0
w 383 382 -361 0
w 383 -382 361 1
w 383 -382 -361 0
w 384 383 362 1
w 384 383 -362 1
w 384 -383 362 0
w 384 -383 -362 1
w 385 384 363 0
w 385 384 -363 1
w 385 -384 363 0
w 385 -384 -363 1
w 386 385 364 0.396623
w 386 385 -364 0.30165
w 386 -385 364 0.658173
w 386 -385 -364 0.679715
w 387 386 365 1
w 387 386 -365 0
w 387 -386 365 0
w 387 -386 -365 0
w 388 387 366 0
w 388 387 -366 0
w 388 -387 366 1
w 388 -387 -366 1
w 389 388 367 0
w 389 388 -367 1
w 389 -388 367 0
w 389 -388 -367 1
w 390 389 368 0.831959
w 390 389 -368 0.158423
w 390 -389 368 0.511492
w 390 -389 -368 0.36905
w 391 390 369 0
w 391 390 -369 0
w 391 -390 369 1
w 391 -390 -369 1
w 392 391 370 0
w 392 391 -370 0
w 392 -391 370 1
w 392 -391 -370 0
w 393 392 371 1
w 393 392 -371 0
w 393 -392 371 0
w 393 -392 -371 1
w 394 393 372 0
w 394 393 -372 1
w 394 -393 372 1
w 394 -393 -372 1
w 395 394 373 1
w 395 394 -373 1
w 395 -394 373 1
w 395 -394 -373 0
w 396 395 374 1
w 396 395 -374 0
w 396 -395 374 1
w 396 -395 -374 1
w 397 375 1
w 397 -375 0
w 398 397 376 0
w 398 397 -376 0
w 398 -397 376 1
w 398 -397 -376 0
w 399 398 377 1
w 399 398 -377 0
w 399 -398 377 0
w 399 -398 -377 0
w 400 399 378 0
w 400 399 -378 0
w 400 -399 378 0
w 400 -399 -378 1
w 401 400 379 1
w 401 400 -379 0
w 401 -400 379 1
w 401 -400 -379 1
w 402 401 380 0.914323
w 402 401 -380 0.856384
w 402 -401 380 0.257103
w 402 -401 -380 0.177226
w 403 402 381 0.0595257
w 403 402 -381 0.809178
w 403 -402 381 0.227348
w 403 -402 -381 0.407493
w 404 403 382 0
w 404 403 -382 0
w 404 -403 382 0
w 404 -403 -382 1
w 405 404 383 1
w 405 404 -383 0
w 405 -404 383 0
w 405 -404 -383 1
w 406 405 384 1
w 406 405 -384 0
w 406 -405 384 0
w 406 -405 -384 0
w 407 406 385 0.0662389
w 407 406 -385 0.297245
w 407 -406 385 0.432959
w 407 -406 -385 0.549618
w 408 407 386 1
w 408 407 -386 1
w 408 -407 386 0
w 408 -407 -386 1
w 409 408 387 0
w 409 408 -387 0
w 409 -408 387 1
w 409 -408 -387 1
w 410 409 388 1
w 410 409 -388 1
w 410 -409 388 0
w 410 -409 -388 1
w 411 410 389 0
w 411 410 -389 0
w 411 -410 389 0
w 411 -410 -389 1
w 412 411 390 0
w 412 411 -390 0
w 412 -411 390 1
w 412 -411 -390 1
w 413 412 391 0
w 413 412 -391 1
w 413 -412 391 0
w 413 -412 -391 0
w 414 413 392 0
w 414 413 -392 1
w 414 -413 392 1
w 414 -413 -392 1
w 415 414 393 0.329183
w 415 414 -393 0.463053
w 415 -414 393 0.585548
w 415 -414 -393 0.779528
w 416 415 394 1
w 416 415 -394 1
w 416 -415 394 1
w 416 -415 -394 0
w 417 416 395 1
w 417 416 -395 0
w 417 -416 395 0
w 417 -416 -395 1
w 418 417 396 1
w 418 417 -396 1
w 418 -417 396 0
w 418 -417 -396 1
w 419 397 0
w 419 -397 1
w 420 419 398 1
w 420 419 -398 0
w 420 -419 398 1
w 420 -419 -398 1
w 421 420 399 0
w 421 420 -399 1
w 421 -420 399 0
w 421 -420 -399 1
w 422 421 400 1
w 422 421 -400 0
w 422 -421 400 1
w 422 -421 -400 1
w 423 422 401 0
w 423 422 -401 0
w 423 -422 401 1
w 423 -422 -401 0
w 424 423 402 0
w 424 423 -402 0
w 424 -423 402 0
w 424 -423 -402 1
w 425 424 403 0.0386275
w 425 424 -403 0.968812
w 425 -424 403 0.714778
w 425 -424 -403 0.462239
w 426 425 404 0
w 426 425 -404 1
w 426 -425 404 0
w 426 -425 -404 0
w 427 426 405 0.370365
w 427 426 -405 0.237519
w 427 -426 405 0.892605
w 427 -426 -405 0.452204
w 428 427 406 1
w 428 427 -406 0
w 428 -427 406 1
w 428 -427 -406 1
w 429 428 407 1
w 429 428 -407 1
w 429 -428 407 1
w 429 -428 -407 0
w 430 429 408 0.346927
w 430 429 -408 0.341626
w 430 -429 408 0.592302
w 430 -429 -408 0.57016
w 431 430 409 0
w 431 430 -409 0
w 431 -430 409 1
w 431 -430 -409 1
w 432 431 410 1
w 432 431 -410 0
w 432 -431 410 1
w 432 -431 -410 0
w 433 432 411 0
w 433 432 -411 1
w 433 -432 411 0
w 433 -432 -411 0
w 434 433 412 0
w 434 433 -412 0
w 434 -433 412 1
w 434 -433 -412 1
w 435 434 413 0.728156
w 435 434 -413 0.263647
w 435 -434 413 0.0718122
w 435 -434 -413 0.978199
w 436 435 414 0
w 436 435 -414 1
w 436 -435 414 1
w 436 -435 -414 1
w 437 436 415 0.393438
w 437 436 -415 0.0885173
w 437 -436 415 0.504073
w 437 -436 -415 0.957032
w 438 437 416 1
w 438 437 -416 0
w 438 -437 416 1
w 438 -437 -416 1
w 439 438 417 1
w 439 438 -417 1
w 439 -438 417 0
w 439 -438 -417 1
w 440 439 418 1
w 440 439 -418 1
w 440 -439 418 0
w 440 -439 -418 0
w 441 419 1
w 441 -419 0
w 442 441 420 1
w 442 441 -420 1
w 442 -441 420 0
w 442 -441 -420 0
w 443 442 421 0.530776
w 443 442 -421 0.814771
w 443 -442 421 0.487092
w 443 -442 -421 0.426062
w 444 443 422 0
w 444 443 -422 0
w 444 -443 422 0
w 444 -443 -422 1
w 445 444 423 1
w 445 444 -423 0
w 445 -444 423 0
w 445 -444 -423 1
w 446 445 424 0
w 446 445 -424 1
w 446 -445 424 1
w 446 -445 -424 0
w 447 446 425 0
w 447 446 -425 0
w 447 -446 425 1
w 447 -446 -425 1
w 448 447 426 0
w 448 447 -426 1
w 448 -447 426 0
w 448 -447 -426 0
w 449 448 427 0.763696
w 449 448 -427 0.625656
w 449 -448 427 0.738487
w 449 -448 -427 0.250788
w 450 449 428 1
w 450 449 -428 0
w 450 -449 428 0
w 450 -449 -428 1
w 451 450 429 1
w 451 450 -429 0
w 451 -450 429 0
w 451 -450 -429 0
w 452 451 430 1
w 452 451 -430 0
w 452 -451 430 1
w 452 -451 -430 0
w 453 452 431 0
w 453 452 -431 1
w 453 -452 431 0
w 453 -452 -431 1
w 454 453 432 1
w 454 453 -432 1
w 454 -453 432 0
w 454 -453 -432 1
w 455 454 433 0
w 455 454 -433 1
w 455 -454 433 0
w 455 -454 -433 1
w 456 455 434 1
w 456 455 -434 0
w 456 -455 434 1
w 456 -455 -434 1
w 457 456 435 0.317722
w 457 456 -435 0.892194
w 457 -456 435 0.0259478
w 457 -456 -435 0.0560988
w 458 457 436 1
w 458 457 -436 1
w 458 -457 436 1
w 458 -457 -436 0
w 459 458 437 0.358234
w 459 458 -437 0.660368
w 459 -458 437 0.332461
w 459 -458 -437 0.94824
w 460 459 438 0
w 460 459 -438 1
w 460 -459 438 1
w 460 -459 -438 1
w 461 460 439 1
w 461 460 -439 1
w 461 -460 439 1
w 461 -460 -439 0
w 462 461 440 0
w 462 461 -440 0
w 462 -461 440 0
w 462 -461 -440 1
w 463 441 0.756585
w 463 -441 0.434267
w 464 463 442 0.812684
w 464 463 -442 0.925184
w 464 -463 442 0.441844
w 464 -463 -442 0.741293
w 465 464 443 0
w 465 464 -443 1
w 465 -464 443 0
w 465 -464 -443 1
w 466 465 444 0
w 466 465 -444 1
w 466 -465 444 0
w 466 -465 -444 0
w 467 466 445 0
w 467 466 -445 1
w 467 -466 445 0
w 467 -466 -445 1
w 468 467 446 0.940814
w 468 467 -446 0.364649
w 468 -467 446 0.095227
w 468 -467 -446 0.481577
w 469 468 447 0
w 469 468 -447 1
w 469 -468 447 0
w 469 -468 -447 1
w 470 469 448 0
w 470 469 -448 0
w 470 -469 448 0
w 470 -469 -448 1
w 471 470 449 0.928162
w 471 470 -449 0.570728
w 471 -470 449 0.549545
w 471 -470 -449 0.275134
w 472 471 450 0
w 472 471 -450 1
w 472 -471 450 1
w 472 -471 -450 1
w 473 472 451 0
w 473 472 -451 1
w 473 -472 451 1
w 473 -472 -451 0
w 474 473 452 0.802481
w 474 473 -452 0.521279
w 474 -473 452 0.202572
w 474 -473 -452 0.897708
w 475 474 453 1
w 475 474 -453 0
w 475 -474 453 1
w 475 -474 -453 1
w 476 475 454 1
w 476 475 -454 0
w 476 -475 454 0
w 476 -475 -454 1
w 477 476 455 0
w 477 476 -455 0
w 477 -476 455 1
w 477 -476 -455 0
w 478 477 456 1
w 478 477 -456 0
w 478 -477 456 1
w 478 -477 -456 1
w 479 478 457 1
w 479 478 -457 1
w 479 -478 457 0
w 479 -478 -457 0
w 480 479 458 1
w 480 479 -458 0
w 480 -479 458 0
w 480 -479 -458 0
w 481 480 459 1
w 481 480 -459 0
w 481 -480 459 0
w 481 -480 -459 0
w 482 481 460 1
w 482 481 -460 0
w 482 -481 460 1
w 482 -481 -460 0
w 483 482 461 0.767903
w 483 482 -461 0.402616
w 483 -482 461 0.14914
w 483 -482 -461 0.987931
w 484 483 462 0
w 484 483 -462 0
w 484 -483 462 0
w 484 -483 -462 1